clingo version 5.4.0
Reading from ./src/permutations.lp ...
Solving...
Answer: 1
assignColor(3,1) assignColor(2,1) assignColor(1,1)
SATISFIABLE

Models       : 1
Calls        : 1
Time         : 0.006s (Solving: 0.00s 1st Model: 0.00s Unsat: 0.00s)
CPU Time     : 0.016s
